benchmarks_CP/INST_36x36/30/inst36x36_30_28.dzn
S=6;
start=[|
-1,	22,	23,	-1,	-1,	-1,	-1,	11,	-1,	-1,	-1,	-1,	-1,	-1,	-1,	-1,	-1,	30,	-1,	-1,	-1,	14,	5,	-1,	27,	2,	-1,	-1,	-1,	25,	-1,	-1,	-1,	10,	19,	16|
-1,	-1,	-1,	-1,	18,	-1,	-1,	-1,	-1,	-1,	-1,	-1,	-1,	14,	11,	-1,	1,	-1,	31,	-1,	-1,	32,	-1,	-1,	22,	21,	-1,	34,	-1,	-1,	-1,	-1,	-1,	-1,	-1,	7|
-1,	-1,	9,	-1,	-1,	-1,	-1,	-1,	-1,	-1,	8,	-1,	-1,	7,	-1,	15,	-1,	-1,	-1,	-1,	-1,	28,	-1,	-1,	-1,	-1,	-1,	-1,	-1,	3,	-1,	-1,	-1,	26,	6,	14|
-1,	-1,	-1,	-1,	32,	3,	-1,	-1,	-1,	-1,	-1,	-1,	9,	-1,	-1,	-1,	-1,	-1,	-1,	-1,	-1,	33,	26,	12,	18,	19,	-1,	-1,	-1,	-1,	15,	-1,	-1,	31,	-1,	-1|
1,	-1,	-1,	-1,	10,	-1,	-1,	-1,	-1,	-1,	-1,	-1,	-1,	-1,	4,	-1,	29,	36,	-1,	9,	-1,	-1,	-1,	22,	-1,	31,	-1,	-1,	-1,	-1,	-1,	-1,	-1,	12,	-1,	-1|
35,	-1,	-1,	-1,	-1,	-1,	-1,	14,	20,	32,	17,	-1,	-1,	-1,	-1,	-1,	-1,	-1,	-1,	-1,	19,	-1,	21,	-1,	12,	11,	-1,	36,	-1,	-1,	-1,	27,	24,	-1,	-1,	3|
23,	-1,	-1,	-1,	-1,	9,	-1,	-1,	-1,	-1,	-1,	-1,	34,	-1,	-1,	-1,	-1,	-1,	18,	-1,	5,	8,	-1,	6,	-1,	33,	-1,	20,	-1,	22,	-1,	4,	13,	-1,	-1,	19|
-1,	-1,	-1,	30,	-1,	-1,	21,	33,	-1,	-1,	19,	-1,	6,	4,	35,	7,	-1,	-1,	23,	-1,	-1,	9,	-1,	-1,	36,	-1,	12,	-1,	3,	-1,	-1,	-1,	-1,	-1,	-1,	-1|
10,	-1,	-1,	-1,	-1,	-1,	-1,	-1,	18,	-1,	-1,	-1,	-1,	-1,	-1,	-1,	14,	-1,	-1,	11,	-1,	-1,	17,	-1,	-1,	-1,	-1,	8,	32,	-1,	-1,	7,	31,	21,	-1,	29|
13,	17,	-1,	-1,	-1,	18,	-1,	-1,	-1,	8,	-1,	-1,	1,	-1,	31,	-1,	-1,	-1,	-1,	4,	36,	-1,	-1,	24,	-1,	25,	34,	-1,	-1,	-1,	-1,	14,	-1,	-1,	33,	-1|
-1,	-1,	-1,	-1,	22,	26,	-1,	30,	-1,	-1,	-1,	-1,	-1,	-1,	12,	-1,	-1,	-1,	-1,	3,	10,	-1,	-1,	27,	-1,	-1,	-1,	-1,	24,	-1,	23,	-1,	11,	-1,	-1,	28|
4,	25,	20,	-1,	-1,	12,	5,	-1,	-1,	-1,	34,	-1,	18,	13,	8,	-1,	-1,	-1,	-1,	-1,	-1,	-1,	28,	-1,	-1,	-1,	-1,	-1,	21,	-1,	-1,	-1,	-1,	-1,	3,	-1|
24,	29,	-1,	23,	-1,	-1,	34,	-1,	22,	-1,	-1,	-1,	8,	-1,	-1,	-1,	-1,	-1,	-1,	-1,	7,	-1,	-1,	-1,	35,	-1,	15,	2,	-1,	21,	-1,	-1,	33,	14,	31,	-1|
-1,	-1,	-1,	20,	-1,	-1,	2,	-1,	-1,	29,	-1,	21,	-1,	15,	-1,	-1,	27,	-1,	30,	-1,	-1,	-1,	-1,	-1,	-1,	-1,	25,	-1,	-1,	32,	-1,	8,	-1,	5,	-1,	17|
-1,	-1,	-1,	-1,	-1,	-1,	-1,	-1,	-1,	-1,	-1,	-1,	-1,	-1,	-1,	22,	-1,	-1,	5,	34,	-1,	10,	-1,	-1,	-1,	-1,	-1,	7,	33,	-1,	-1,	3,	4,	24,	-1,	-1|
-1,	35,	2,	4,	-1,	5,	-1,	-1,	-1,	-1,	-1,	-1,	-1,	-1,	-1,	-1,	18,	-1,	16,	-1,	-1,	-1,	27,	14,	-1,	28,	11,	-1,	-1,	-1,	29,	-1,	-1,	-1,	21,	-1|
34,	-1,	26,	8,	-1,	22,	15,	-1,	-1,	-1,	7,	-1,	25,	33,	13,	5,	24,	-1,	-1,	-1,	-1,	12,	-1,	-1,	29,	3,	-1,	1,	-1,	-1,	-1,	-1,	-1,	-1,	-1,	35|
-1,	-1,	21,	-1,	-1,	-1,	27,	-1,	23,	-1,	1,	33,	-1,	-1,	14,	28,	-1,	12,	15,	-1,	-1,	3,	35,	8,	-1,	-1,	22,	-1,	-1,	-1,	-1,	-1,	-1,	-1,	-1,	-1|
-1,	-1,	-1,	-1,	-1,	-1,	-1,	8,	-1,	-1,	-1,	-1,	-1,	18,	-1,	-1,	-1,	7,	11,	5,	30,	-1,	-1,	-1,	25,	35,	20,	24,	-1,	-1,	-1,	-1,	-1,	3,	-1,	6|
-1,	-1,	-1,	-1,	-1,	-1,	-1,	-1,	-1,	-1,	-1,	-1,	-1,	-1,	-1,	-1,	31,	19,	-1,	-1,	-1,	-1,	-1,	34,	-1,	8,	-1,	16,	-1,	-1,	-1,	29,	14,	-1,	-1,	-1|
-1,	-1,	35,	25,	36,	-1,	6,	-1,	-1,	33,	-1,	-1,	-1,	30,	-1,	-1,	5,	34,	-1,	-1,	-1,	-1,	-1,	9,	-1,	10,	2,	-1,	-1,	-1,	-1,	11,	-1,	-1,	-1,	-1|
15,	-1,	-1,	-1,	-1,	13,	-1,	18,	-1,	-1,	-1,	-1,	26,	32,	-1,	-1,	23,	27,	28,	-1,	-1,	-1,	-1,	-1,	-1,	-1,	-1,	-1,	22,	17,	-1,	-1,	-1,	-1,	9,	4|
-1,	-1,	-1,	-1,	-1,	-1,	-1,	-1,	-1,	-1,	11,	-1,	-1,	28,	24,	-1,	-1,	-1,	-1,	-1,	-1,	27,	-1,	17,	-1,	-1,	-1,	-1,	-1,	-1,	-1,	-1,	-1,	-1,	12,	-1|
18,	23,	-1,	-1,	-1,	-1,	-1,	2,	-1,	5,	3,	-1,	-1,	-1,	-1,	4,	-1,	-1,	-1,	-1,	35,	-1,	-1,	25,	-1,	-1,	-1,	27,	-1,	14,	-1,	-1,	-1,	-1,	-1,	-1|
-1,	-1,	-1,	3,	-1,	23,	19,	-1,	2,	18,	-1,	-1,	15,	-1,	-1,	-1,	13,	-1,	20,	-1,	-1,	-1,	32,	-1,	8,	-1,	-1,	-1,	-1,	-1,	-1,	34,	-1,	25,	24,	33|
-1,	-1,	-1,	-1,	4,	-1,	11,	-1,	13,	-1,	-1,	8,	24,	-1,	-1,	14,	-1,	-1,	-1,	31,	23,	-1,	-1,	33,	-1,	-1,	-1,	29,	35,	-1,	-1,	-1,	-1,	-1,	10,	-1|
-1,	-1,	25,	24,	-1,	-1,	10,	-1,	3,	-1,	-1,	-1,	2,	-1,	30,	17,	8,	-1,	9,	-1,	-1,	-1,	12,	-1,	13,	-1,	-1,	33,	1,	-1,	-1,	-1,	-1,	-1,	-1,	5|
-1,	-1,	-1,	14,	-1,	-1,	-1,	-1,	-1,	-1,	33,	-1,	-1,	20,	28,	-1,	7,	-1,	-1,	-1,	-1,	24,	-1,	-1,	-1,	-1,	-1,	22,	-1,	-1,	-1,	-1,	1,	-1,	-1,	-1|
-1,	12,	-1,	-1,	-1,	-1,	29,	-1,	7,	31,	-1,	24,	36,	-1,	-1,	-1,	-1,	-1,	3,	-1,	34,	-1,	-1,	-1,	-1,	-1,	-1,	-1,	25,	-1,	2,	19,	27,	20,	-1,	13|
33,	-1,	-1,	-1,	-1,	-1,	-1,	-1,	-1,	-1,	5,	-1,	-1,	-1,	19,	-1,	25,	10,	-1,	-1,	11,	-1,	-1,	-1,	-1,	-1,	-1,	-1,	-1,	-1,	-1,	-1,	-1,	-1,	-1,	-1|
-1,	3,	-1,	2,	-1,	-1,	-1,	-1,	1,	-1,	-1,	-1,	33,	25,	-1,	-1,	-1,	-1,	7,	-1,	-1,	-1,	-1,	-1,	-1,	6,	-1,	-1,	-1,	-1,	14,	-1,	-1,	-1,	-1,	-1|
7,	-1,	27,	-1,	5,	-1,	-1,	-1,	12,	-1,	-1,	-1,	-1,	34,	1,	-1,	-1,	-1,	8,	-1,	-1,	-1,	-1,	-1,	-1,	-1,	-1,	25,	-1,	-1,	33,	-1,	-1,	-1,	28,	31|
-1,	-1,	31,	-1,	-1,	1,	-1,	-1,	-1,	-1,	26,	19,	-1,	-1,	-1,	-1,	-1,	-1,	36,	-1,	33,	-1,	-1,	-1,	-1,	-1,	-1,	-1,	-1,	-1,	-1,	-1,	-1,	2,	-1,	-1|
-1,	-1,	-1,	6,	-1,	-1,	3,	-1,	11,	-1,	-1,	5,	-1,	8,	16,	-1,	-1,	-1,	-1,	-1,	18,	1,	-1,	19,	17,	-1,	-1,	23,	34,	-1,	-1,	32,	-1,	-1,	-1,	-1|
-1,	33,	-1,	-1,	-1,	-1,	-1,	-1,	-1,	-1,	-1,	-1,	-1,	-1,	-1,	-1,	35,	-1,	-1,	-1,	9,	-1,	-1,	-1,	-1,	-1,	4,	-1,	-1,	20,	8,	-1,	-1,	-1,	-1,	-1|
-1,	-1,	-1,	-1,	-1,	-1,	8,	-1,	-1,	-1,	2,	-1,	-1,	-1,	-1,	-1,	-1,	-1,	-1,	-1,	20,	-1,	-1,	-1,	-1,	-1,	-1,	-1,	-1,	-1,	-1,	-1,	-1,	-1,	-1,	18|];
